2973.94 248394
6466.44 233305
250267 5225.22
172154 68852.3
59721.5 204417
90461 168616
76833.6 177172
173249 68688.3
34323.7 213874
35174.8 210184
134972 110801
219730 36989.4
206086 46759.5
235901 20989.1
136834 109567
99673.6 166886
87952.9 170037
126810 128065
140005 103872
26094.8 223087
39346.4 206904
201157 62777
103794 143668
89664.3 169590
60287 190536
31195.7 220887
162280 84478.8
73341.7 178610
117344 136191
134966 115136
232502 28819.8
59867.5 191748
5207.56 239379
171461 80836.6
101008 147114
182483 66535.2
177842 66938.2
229098 30804.3
229671 29166
239150 14549.3
4662.21 240332
132919 115975
223118 34423.3
65982.2 182050
67745.4 179688
207292 43549.4
223774 32170.3
240169 11680.8
244926 8482.78
205863 48723.9
234082 24893.9
216532 42513.3
138138 108800
247907 6663.22
120955 133279
